
;this file is automatically generated: Mon Oct 26 19:31:24 CST 2020

;declarations generated

(declare-fun oclExcludes ( Int Int) Bool)
(declare-fun type_6d52d403_b860_467c_8384_54bb3b117970_Class22 ( Int) Bool)
(declare-fun Cardinality ( Int) Int)
(declare-fun type_6d52d403_b860_467c_8384_54bb3b117970_Class35 ( Int) Bool)
(declare-fun obj_696147f0_bc6b_46c0_8ebc_2e08fe0762e4 ( Int) Int)
(declare-fun type_6d52d403_b860_467c_8384_54bb3b117970_Class42 ( Int) Bool)
(declare-fun oclSelect ( Int Bool) Int)
(declare-fun type_6d52d403_b860_467c_8384_54bb3b117970_Class2 ( Int) Bool)
(declare-fun type_6d52d403_b860_467c_8384_54bb3b117970_Class6 ( Int) Bool)
(declare-fun class6_Class6IntAttr4 ( Int) Int)
(declare-fun Enum0 ( Int) Int)
(declare-fun Enum1 ( Int) Int)
(declare-fun Enum2 ( Int) Int)
(declare-fun container_ ( Int) Int)
(declare-fun oclIncludes ( Int Int) Bool)
(declare-fun ObjAt ( Int Int) Int)

;formula(s) generated
(assert (! (forall ((v Int)) (=> (and (and (and (and ( type_6d52d403_b860_467c_8384_54bb3b117970_Class6 v )  ( type_6d52d403_b860_467c_8384_54bb3b117970_Class22 v ) ) ( type_6d52d403_b860_467c_8384_54bb3b117970_Class35 v ) ) ( type_6d52d403_b860_467c_8384_54bb3b117970_Class2 v ) ) ( type_6d52d403_b860_467c_8384_54bb3b117970_Class42 v ) ) (< ( class6_Class6IntAttr4 ( obj_696147f0_bc6b_46c0_8ebc_2e08fe0762e4 v )  )  9))):named l0))
(assert (exists ((o Int)) (and (and (and (and ( type_6d52d403_b860_467c_8384_54bb3b117970_Class6 ( obj_696147f0_bc6b_46c0_8ebc_2e08fe0762e4 o )  )  ( type_6d52d403_b860_467c_8384_54bb3b117970_Class22 ( obj_696147f0_bc6b_46c0_8ebc_2e08fe0762e4 o )  ) ) ( type_6d52d403_b860_467c_8384_54bb3b117970_Class35 ( obj_696147f0_bc6b_46c0_8ebc_2e08fe0762e4 o )  ) ) ( type_6d52d403_b860_467c_8384_54bb3b117970_Class2 ( obj_696147f0_bc6b_46c0_8ebc_2e08fe0762e4 o )  ) ) ( type_6d52d403_b860_467c_8384_54bb3b117970_Class42 ( obj_696147f0_bc6b_46c0_8ebc_2e08fe0762e4 o )  ) )))

 ;end of formula 